CPXPARAM_Read_DataCheck                          1
Found incumbent of value 0.000000 after 0.00 sec. (3.82 ticks)
Tried aggregator 1 time.
MIP Presolve modified 11 coefficients.
Reduced MIP has 10046 rows, 150015 columns, and 750060 nonzeros.
Reduced MIP has 150015 binaries, 0 generals, 0 SOSs, and 0 indicators.
Presolve time = 0.45 sec. (270.30 ticks)
Tried aggregator 1 time.
Reduced MIP has 10046 rows, 150015 columns, and 750060 nonzeros.
Reduced MIP has 150015 binaries, 0 generals, 0 SOSs, and 0 indicators.
Presolve time = 0.67 sec. (307.86 ticks)
Probing time = 0.22 sec. (33.90 ticks)
Clique table members: 299249.
MIP emphasis: balance optimality and feasibility.
MIP search method: dynamic search.
Parallel mode: deterministic, using up to 4 threads.
Root relaxation solution time = 3.08 sec. (1654.95 ticks)

        Nodes                                         Cuts/
   Node  Left     Objective  IInf  Best Integer    Best Bound    ItCnt     Gap

*     0+    0                            0.0000   928474.0000              --- 
      0     0   482212.2591    19        0.0000   482212.2591    33982     --- 
*     0+    0                       322336.0000   482212.2591            49.60%
      0     0        cutoff         322336.0000   322336.0000    51130    0.00%
Elapsed time = 133.91 sec. (60511.21 ticks, tree = 0.01 MB, solutions = 2)

Clique cuts applied:  2597
Mixed integer rounding cuts applied:  13
Gomory fractional cuts applied:  1

Root node processing (before b&c):
  Real time             =  133.94 sec. (60520.93 ticks)
Parallel b&c, 4 threads:
  Real time             =    0.00 sec. (0.00 ticks)
  Sync time (average)   =    0.00 sec.
  Wait time (average)   =    0.00 sec.
                          ------------
Total (root+branch&cut) =  133.94 sec. (60520.93 ticks)
